
  32    1
  10

   0   0  12 2 3 4 5 6 7 8 9 10 14 23 31 
   7   3   7 28 22 20 19 17 12 11 
   7  10   7 29 26 21 19 18 16 15 
   7   7   6 29 22 20 16 13 12 
   3   6   5 30 29 19 13 12 
   6  10   5 29 26 24 19 18 
   4   8   5 29 28 24 20 18 
   5   7   4 30 25 21 16 
   6   5   4 28 26 25 17 
   5   4   3 30 25 16 
   1   8   4 29 27 26 25 
   2   6   3 26 24 18 
   7  10   3 28 26 17 
   3   4   2 30 17 
  10   8   2 30 25 
   1  10   1 17 
   4   9   1 24 
   9   7   1 25 
   5  10   1 27 
   6   8   1 27 
   6  10   1 28 
   7  10   1 27 
   8  10   1 26 
   5   6   1 32
  10  10   1 32
   8   8   1 32
   5  10   1 32
   8  10   1 32
   4   8   1 32
   5   8   1 32
   4  10   1 32
   0   0   0 
